This is Ipopt version 3.14.16, running with linear solver MUMPS 5.7.3.

Number of nonzeros in equality constraint Jacobian...:        0
Number of nonzeros in inequality constraint Jacobian.:     1092
Number of nonzeros in Lagrangian Hessian.............:        0

Total number of variables............................:       21
                     variables with only lower bounds:        0
                variables with lower and upper bounds:       21
                     variables with only upper bounds:        0
Total number of equality constraints.................:        0
Total number of inequality constraints...............:       52
        inequality constraints with only lower bounds:        0
   inequality constraints with lower and upper bounds:        0
        inequality constraints with only upper bounds:       52

iter    objective    inf_pr   inf_du lg(mu)  ||d||  lg(rg) alpha_du alpha_pr  ls
   0  1.4237836e-01 1.37e-02 7.13e-01   0.0 0.00e+00    -  0.00e+00 0.00e+00   0
   1  1.4343727e-01 0.00e+00 5.45e-02  -2.0 5.39e-02    -  9.73e-01 1.00e+00h  1
   2  1.4333534e-01 0.00e+00 6.88e-04  -7.4 3.31e-03    -  9.86e-01 1.00e+00h  1
   3  1.4283211e-01 0.00e+00 6.65e-03  -9.2 4.63e-02    -  7.16e-01 1.00e+00h  1
   4  1.4336415e-01 0.00e+00 1.61e-03  -4.4 5.29e-01    -  9.84e-01 1.00e+00H  1
   5  1.4154729e-01 3.78e-02 5.82e-04  -4.4 4.14e-01    -  9.56e-01 1.00e+00f  1
   6  1.4278125e-01 0.00e+00 8.73e-05  -5.0 5.49e-02    -  9.95e-01 1.00e+00h  1

Number of Iterations....: 6

                                   (scaled)                 (unscaled)
Objective...............:   1.4278125468945155e-01    1.4278125468945155e-01
Dual infeasibility......:   8.7341267071682087e-05    8.7341267071682087e-05
Constraint violation....:   0.0000000000000000e+00    0.0000000000000000e+00
Variable bound violation:   0.0000000000000000e+00    0.0000000000000000e+00
Complementarity.........:   1.2349575791698432e-05    1.2349575791698432e-05
Overall NLP error.......:   8.7341267071682087e-05    8.7341267071682087e-05


Number of objective function evaluations             = 11
Number of objective gradient evaluations             = 7
Number of equality constraint evaluations            = 0
Number of inequality constraint evaluations          = 11
Number of equality constraint Jacobian evaluations   = 0
Number of inequality constraint Jacobian evaluations = 7
Number of Lagrangian Hessian evaluations             = 0
Total seconds in IPOPT                               = 10.054

EXIT: Optimal Solution Found.
